NAME: pr439
COMMENT: Quick (5min) local search tour for pr439 (123137.22309713128)
TYPE: TOUR
DIMENSION: 439
TOUR_SECTION: 1 3 2 52 51 50 48 47 49 46 4 5 6 7 8 9 10 11 40 41 43 45 44 42 39 38 12 13 14 15 16 17 33 34 35 36 37 57 58 59 60 61 78 77 87 86 79 80 81 82 56 55 54 53 189 340 374 375 381 391 392 399 396 397 398 393 395 394 384 382 383 371 372 373 341 342 343 344 284 283 439 435 436 437 438 434 424 425 410 411 409 408 403 426 433 432 430 427 422 423 412 413 407 406 415 416 400 401 388 387 386 385 370 361 360 339 338 337 336 335 334 333 300 299 298 297 296 295 294 279 278 277 276 275 274 273 224 223 222 233 234 235 236 237 238 239 240 241 242 243 244 245 246 247 248 249 252 251 250 210 211 212 213 214 215 216 217 218 219 220 221 193 194 195 196 197 198 199 200 201 202 203 176 175 161 160 126 125 123 124 127 129 130 131 132 133 128 99 98 97 96 95 100 18 19 20 67 68 66 65 22 21 24 23 25 64 74 73 63 29 27 26 28 30 31 32 62 75 76 110 111 112 148 147 144 146 109 108 107 106 105 104 91 90 89 88 72 71 70 69 102 92 93 94 101 122 121 120 117 119 118 116 115 103 114 113 145 185 190 191 184 192 183 182 181 180 179 178 177 159 158 157 156 155 154 153 151 150 143 152 142 141 140 139 138 137 136 135 134 162 163 164 165 167 166 169 170 168 171 172 173 174 204 205 206 207 208 209 253 255 254 316 315 256 257 258 259 260 261 262 263 264 307 308 309 310 311 312 313 314 318 317 319 320 321 322 323 324 325 326 327 328 329 331 330 303 302 301 272 271 270 269 268 265 266 267 306 305 304 332 367 366 365 364 363 362 369 368 378 402 404 405 417 418 428 429 431 419 420 421 414 389 390 380 379 377 376 345 346 348 347 349 350 351 352 354 353 355 356 358 357 359 293 292 291 290 289 288 287 286 285 280 232 231 225 188 187 230 281 282 229 228 227 226 186 149 83 84 85 -1
EOF